Route #1: 65 78 6 49 2 7 
Route #2: 64 3 48 26 47 
Route #3: 87 37 36 29 43 45 
Route #4: 80 8 100 
Route #5: 69 16 92 
Route #6: 13 74 55 76 
Route #7: 91 52 62 
Route #8: 17 34 10 
Route #9: 57 82 28 42 
Route #10: 81 51 83 
Route #11: 46 24 31 95 
Route #12: 61 97 19 
Route #13: 32 35 20 41 
Route #14: 86 54 9 
Route #15: 15 39 63 14 77 
Route #16: 72 60 67 88 
Route #17: 18 4 25 
Route #18: 93 30 85 11 
Route #19: 44 40 59 96 21 
Route #20: 38 89 98 99 71 
Route #21: 94 56 27 
Route #22: 73 53 33 75 
Route #23: 79 50 23 
Route #24: 5 12 58 
Route #25: 68 66 84 90 
Route #26: 70 1 22 
Cost 29096